NAME: random-21-1682
TYPE: TSP
COMMENT: size=21 seed=1682
DIMENSION: 44
EDGE_WEIGHT_TYPE: EUC_2D
NODE_COORD_SECTION
+0 374 831
-0 374 831
+1 548 408
-1 895 569
+2 612 454
-2 765 699
+3 685 118
-3 551 216
+4 198 414
-4 212 920
+5 452 973
-5 8 166
+6 239 64
-6 880 543
+7 259 657
-7 597 878
+8 857 981
-8 434 562
+9 270 634
-9 976 664
+10 989 460
-10 921 403
+11 305 156
-11 382 326
+12 982 576
-12 699 805
+13 703 894
-13 788 20
+14 322 349
-14 197 499
+15 317 556
-15 822 576
+16 909 736
-16 105 912
+17 178 78
-17 462 80
+18 568 427
-18 453 841
+19 412 204
-19 690 393
+20 806 238
-20 156 103
+21 974 464
-21 624 188
PRECEDENCE_SECTION
+0 -0
+1 -1
+2 -2
+3 -3
+4 -4
+5 -5
+6 -6
+7 -7
+8 -8
+9 -9
+10 -10
+11 -11
+12 -12
+13 -13
+14 -14
+15 -15
+16 -16
+17 -17
+18 -18
+19 -19
+20 -20
+21 -21
EOF
